Station QTH	Callsign	Frequency	Offset	Color 
Roverkollen	LD1OA		434.8875	-2	1   
Kolsaas		LA1KRR		434.9250	-2	1   
Follo		LA2YRR		434.7500	-2	1   
Drammen		LD3DV		434.5250	-2	1   
Bislingen	LA8OR		434.6000	-2	1   
Hvittingen	LA6HR		434.6500	-2	1
Tonsberg	LD3ST		434.5500	-2	1
Skien		LD3GL		434.5125	-2	1
Sarpsborg	LD1SG		434.8125	-2	1
Hurdal		LA8ER		434.8750	-2	1
Raufoss		LA2DRR		434.8250	-2	1
Gran		LA7UR		434.6750	-2	1
Ringerike	LD3RI		434.8125	-2	1
Kongsberg	LD3KR		434.8375	-2	1
Arendal		LD4FH		434.7000	-2	1
Mandal		LD4KH		145.1625	-0.6	1
Stavanger	LD4LI		434.9750	-2	1
Haugesund	LD5HH		434.7500 	-2	1
Bergen		LD5BR		434.8250	-2	1
Nordfjord	LA6SRR		434.6250 	-2	1
Trondheim	LD7TD		434.700		-2	1
Bronnoysund	LD8BS		434.9750	-2	1
Sandnessjon	LD8SA		434.8000	-2	1
MoIRana		LD8MR		434.8500	-2	1
Fauske		LD8FT		434.9500	-2	1
Bodo		LA6PR		434.6750	-2	1
Lodingen	LD8LR		434.6250	-2	1
Narvik		LA5WR		434.7500	-2	1
Harstad		LD9HR		434.8250	-2	1
Bardufoss	LA8ZR		434.6500	-2	1
Tromso		LD9TN		434.8000	-2	1
